150508
0,42,101,73,82,33,8,41,18,67,49,25,13,46,60,3,102,31,6,83,52,36,69,17,62,34,74,14,78,90,59,95,77,93,2,104,37,103,10,40,66,94,70,53,100,48,38,72,35,84,47,61,21,20,16,89,63,15,19,55,39,5,76,45,85,24,44,71,1,32,81,50,99,98,80,68,87,12,97,30,64,51,4,29,28,54,96,105,7,91,11,92,22,56,79,88,23,57,75,27,26,9,58,65,43,86,0